c Sudoku solution
p cnf 729 0
187 0
269 0
278 0
282 0
323 0
341 0
357 0
475 0
513 0
528 0
567 0
619 0
626 0
655 0
535 0
661 0
698 0
776 0
839 0
129 0
848 0
918 0
788 0
927 0
747 0
933 0
816 0
956 0
979 0
759 0
851 0
374 0
991 0
171 0
572 0
554 0
253 0
193 0
581 0
763 0
458 0
152 0
115 0
312 0
224 0
443 0
642 0
466 0
549 0
596 0
962 0
386 0
295 0
399 0
246 0
365 0
144 0
168 0
136 0
338 0
945 0
864 0
984 0
489 0
683 0
677 0
494 0
634 0
714 0
873 0
885 0
792 0
897 0
731 0
725 0
822 0
421 0
417 0
432 0
211 0
237 0
